c File: flat100_3_0.col
c
c SOURCE: Joseph Culberson (joe@cs.ualberta.ca)
c DESCRIPTION: Quasi-random coloring problem
c              generated with flatness = 0
c                             probability = 0.072
c                             known coloring = 3
c                             random seed = 1018
c              Creation Date:  Thu Jun  4 18:55:03 1998
c Maximum degree = 8 Minimum degree = 1
c p edge 100 239
c cnf created by edge2cnf
p cnf 300 1117
-1 -2 0
-1 -3 0
-2 -3 0
1 2 3 0
-4 -5 0
-4 -6 0
-5 -6 0
4 5 6 0
-7 -8 0
-7 -9 0
-8 -9 0
7 8 9 0
-10 -11 0
-10 -12 0
-11 -12 0
10 11 12 0
-13 -14 0
-13 -15 0
-14 -15 0
13 14 15 0
-16 -17 0
-16 -18 0
-17 -18 0
16 17 18 0
-19 -20 0
-19 -21 0
-20 -21 0
19 20 21 0
-22 -23 0
-22 -24 0
-23 -24 0
22 23 24 0
-25 -26 0
-25 -27 0
-26 -27 0
25 26 27 0
-28 -29 0
-28 -30 0
-29 -30 0
28 29 30 0
-31 -32 0
-31 -33 0
-32 -33 0
31 32 33 0
-34 -35 0
-34 -36 0
-35 -36 0
34 35 36 0
-37 -38 0
-37 -39 0
-38 -39 0
37 38 39 0
-40 -41 0
-40 -42 0
-41 -42 0
40 41 42 0
-43 -44 0
-43 -45 0
-44 -45 0
43 44 45 0
-46 -47 0
-46 -48 0
-47 -48 0
46 47 48 0
-49 -50 0
-49 -51 0
-50 -51 0
49 50 51 0
-52 -53 0
-52 -54 0
-53 -54 0
52 53 54 0
-55 -56 0
-55 -57 0
-56 -57 0
55 56 57 0
-58 -59 0
-58 -60 0
-59 -60 0
58 59 60 0
-61 -62 0
-61 -63 0
-62 -63 0
61 62 63 0
-64 -65 0
-64 -66 0
-65 -66 0
64 65 66 0
-67 -68 0
-67 -69 0
-68 -69 0
67 68 69 0
-70 -71 0
-70 -72 0
-71 -72 0
70 71 72 0
-73 -74 0
-73 -75 0
-74 -75 0
73 74 75 0
-76 -77 0
-76 -78 0
-77 -78 0
76 77 78 0
-79 -80 0
-79 -81 0
-80 -81 0
79 80 81 0
-82 -83 0
-82 -84 0
-83 -84 0
82 83 84 0
-85 -86 0
-85 -87 0
-86 -87 0
85 86 87 0
-88 -89 0
-88 -90 0
-89 -90 0
88 89 90 0
-91 -92 0
-91 -93 0
-92 -93 0
91 92 93 0
-94 -95 0
-94 -96 0
-95 -96 0
94 95 96 0
-97 -98 0
-97 -99 0
-98 -99 0
97 98 99 0
-100 -101 0
-100 -102 0
-101 -102 0
100 101 102 0
-103 -104 0
-103 -105 0
-104 -105 0
103 104 105 0
-106 -107 0
-106 -108 0
-107 -108 0
106 107 108 0
-109 -110 0
-109 -111 0
-110 -111 0
109 110 111 0
-112 -113 0
-112 -114 0
-113 -114 0
112 113 114 0
-115 -116 0
-115 -117 0
-116 -117 0
115 116 117 0
-118 -119 0
-118 -120 0
-119 -120 0
118 119 120 0
-121 -122 0
-121 -123 0
-122 -123 0
121 122 123 0
-124 -125 0
-124 -126 0
-125 -126 0
124 125 126 0
-127 -128 0
-127 -129 0
-128 -129 0
127 128 129 0
-130 -131 0
-130 -132 0
-131 -132 0
130 131 132 0
-133 -134 0
-133 -135 0
-134 -135 0
133 134 135 0
-136 -137 0
-136 -138 0
-137 -138 0
136 137 138 0
-139 -140 0
-139 -141 0
-140 -141 0
139 140 141 0
-142 -143 0
-142 -144 0
-143 -144 0
142 143 144 0
-145 -146 0
-145 -147 0
-146 -147 0
145 146 147 0
-148 -149 0
-148 -150 0
-149 -150 0
148 149 150 0
-151 -152 0
-151 -153 0
-152 -153 0
151 152 153 0
-154 -155 0
-154 -156 0
-155 -156 0
154 155 156 0
-157 -158 0
-157 -159 0
-158 -159 0
157 158 159 0
-160 -161 0
-160 -162 0
-161 -162 0
160 161 162 0
-163 -164 0
-163 -165 0
-164 -165 0
163 164 165 0
-166 -167 0
-166 -168 0
-167 -168 0
166 167 168 0
-169 -170 0
-169 -171 0
-170 -171 0
169 170 171 0
-172 -173 0
-172 -174 0
-173 -174 0
172 173 174 0
-175 -176 0
-175 -177 0
-176 -177 0
175 176 177 0
-178 -179 0
-178 -180 0
-179 -180 0
178 179 180 0
-181 -182 0
-181 -183 0
-182 -183 0
181 182 183 0
-184 -185 0
-184 -186 0
-185 -186 0
184 185 186 0
-187 -188 0
-187 -189 0
-188 -189 0
187 188 189 0
-190 -191 0
-190 -192 0
-191 -192 0
190 191 192 0
-193 -194 0
-193 -195 0
-194 -195 0
193 194 195 0
-196 -197 0
-196 -198 0
-197 -198 0
196 197 198 0
-199 -200 0
-199 -201 0
-200 -201 0
199 200 201 0
-202 -203 0
-202 -204 0
-203 -204 0
202 203 204 0
-205 -206 0
-205 -207 0
-206 -207 0
205 206 207 0
-208 -209 0
-208 -210 0
-209 -210 0
208 209 210 0
-211 -212 0
-211 -213 0
-212 -213 0
211 212 213 0
-214 -215 0
-214 -216 0
-215 -216 0
214 215 216 0
-217 -218 0
-217 -219 0
-218 -219 0
217 218 219 0
-220 -221 0
-220 -222 0
-221 -222 0
220 221 222 0
-223 -224 0
-223 -225 0
-224 -225 0
223 224 225 0
-226 -227 0
-226 -228 0
-227 -228 0
226 227 228 0
-229 -230 0
-229 -231 0
-230 -231 0
229 230 231 0
-232 -233 0
-232 -234 0
-233 -234 0
232 233 234 0
-235 -236 0
-235 -237 0
-236 -237 0
235 236 237 0
-238 -239 0
-238 -240 0
-239 -240 0
238 239 240 0
-241 -242 0
-241 -243 0
-242 -243 0
241 242 243 0
-244 -245 0
-244 -246 0
-245 -246 0
244 245 246 0
-247 -248 0
-247 -249 0
-248 -249 0
247 248 249 0
-250 -251 0
-250 -252 0
-251 -252 0
250 251 252 0
-253 -254 0
-253 -255 0
-254 -255 0
253 254 255 0
-256 -257 0
-256 -258 0
-257 -258 0
256 257 258 0
-259 -260 0
-259 -261 0
-260 -261 0
259 260 261 0
-262 -263 0
-262 -264 0
-263 -264 0
262 263 264 0
-265 -266 0
-265 -267 0
-266 -267 0
265 266 267 0
-268 -269 0
-268 -270 0
-269 -270 0
268 269 270 0
-271 -272 0
-271 -273 0
-272 -273 0
271 272 273 0
-274 -275 0
-274 -276 0
-275 -276 0
274 275 276 0
-277 -278 0
-277 -279 0
-278 -279 0
277 278 279 0
-280 -281 0
-280 -282 0
-281 -282 0
280 281 282 0
-283 -284 0
-283 -285 0
-284 -285 0
283 284 285 0
-286 -287 0
-286 -288 0
-287 -288 0
286 287 288 0
-289 -290 0
-289 -291 0
-290 -291 0
289 290 291 0
-292 -293 0
-292 -294 0
-293 -294 0
292 293 294 0
-295 -296 0
-295 -297 0
-296 -297 0
295 296 297 0
-298 -299 0
-298 -300 0
-299 -300 0
298 299 300 0
-124 -1 0
-125 -2 0
-126 -3 0
-136 -1 0
-137 -2 0
-138 -3 0
-142 -1 0
-143 -2 0
-144 -3 0
-214 -1 0
-215 -2 0
-216 -3 0
-220 -1 0
-221 -2 0
-222 -3 0
-244 -1 0
-245 -2 0
-246 -3 0
-250 -1 0
-251 -2 0
-252 -3 0
-115 -4 0
-116 -5 0
-117 -6 0
-151 -4 0
-152 -5 0
-153 -6 0
-175 -4 0
-176 -5 0
-177 -6 0
-211 -4 0
-212 -5 0
-213 -6 0
-265 -4 0
-266 -5 0
-267 -6 0
-292 -4 0
-293 -5 0
-294 -6 0
-109 -7 0
-110 -8 0
-111 -9 0
-151 -7 0
-152 -8 0
-153 -9 0
-247 -7 0
-248 -8 0
-249 -9 0
-127 -10 0
-128 -11 0
-129 -12 0
-130 -10 0
-131 -11 0
-132 -12 0
-154 -10 0
-155 -11 0
-156 -12 0
-178 -10 0
-179 -11 0
-180 -12 0
-256 -10 0
-257 -11 0
-258 -12 0
-295 -10 0
-296 -11 0
-297 -12 0
-298 -10 0
-299 -11 0
-300 -12 0
-103 -13 0
-104 -14 0
-105 -15 0
-157 -13 0
-158 -14 0
-159 -15 0
-265 -13 0
-266 -14 0
-267 -15 0
-247 -16 0
-248 -17 0
-249 -18 0
-190 -19 0
-191 -20 0
-192 -21 0
-103 -22 0
-104 -23 0
-105 -24 0
-208 -22 0
-209 -23 0
-210 -24 0
-214 -22 0
-215 -23 0
-216 -24 0
-244 -22 0
-245 -23 0
-246 -24 0
-268 -22 0
-269 -23 0
-270 -24 0
-139 -25 0
-140 -26 0
-141 -27 0
-175 -25 0
-176 -26 0
-177 -27 0
-199 -25 0
-200 -26 0
-201 -27 0
-202 -28 0
-203 -29 0
-204 -30 0
-205 -28 0
-206 -29 0
-207 -30 0
-217 -28 0
-218 -29 0
-219 -30 0
-262 -28 0
-263 -29 0
-264 -30 0
-187 -31 0
-188 -32 0
-189 -33 0
-193 -31 0
-194 -32 0
-195 -33 0
-208 -31 0
-209 -32 0
-210 -33 0
-250 -31 0
-251 -32 0
-252 -33 0
-259 -31 0
-260 -32 0
-261 -33 0
-280 -31 0
-281 -32 0
-282 -33 0
-142 -34 0
-143 -35 0
-144 -36 0
-175 -34 0
-176 -35 0
-177 -36 0
-205 -34 0
-206 -35 0
-207 -36 0
-229 -34 0
-230 -35 0
-231 -36 0
-262 -34 0
-263 -35 0
-264 -36 0
-277 -34 0
-278 -35 0
-279 -36 0
-202 -37 0
-203 -38 0
-204 -39 0
-286 -37 0
-287 -38 0
-288 -39 0
-112 -40 0
-113 -41 0
-114 -42 0
-178 -40 0
-179 -41 0
-180 -42 0
-187 -40 0
-188 -41 0
-189 -42 0
-220 -40 0
-221 -41 0
-222 -42 0
-247 -40 0
-248 -41 0
-249 -42 0
-271 -40 0
-272 -41 0
-273 -42 0
-289 -40 0
-290 -41 0
-291 -42 0
-121 -43 0
-122 -44 0
-123 -45 0
-160 -43 0
-161 -44 0
-162 -45 0
-184 -43 0
-185 -44 0
-186 -45 0
-253 -43 0
-254 -44 0
-255 -45 0
-274 -43 0
-275 -44 0
-276 -45 0
-298 -43 0
-299 -44 0
-300 -45 0
-166 -46 0
-167 -47 0
-168 -48 0
-232 -46 0
-233 -47 0
-234 -48 0
-238 -46 0
-239 -47 0
-240 -48 0
-241 -46 0
-242 -47 0
-243 -48 0
-127 -49 0
-128 -50 0
-129 -51 0
-133 -49 0
-134 -50 0
-135 -51 0
-259 -49 0
-260 -50 0
-261 -51 0
-154 -52 0
-155 -53 0
-156 -54 0
-163 -52 0
-164 -53 0
-165 -54 0
-211 -52 0
-212 -53 0
-213 -54 0
-223 -52 0
-224 -53 0
-225 -54 0
-232 -52 0
-233 -53 0
-234 -54 0
-127 -55 0
-128 -56 0
-129 -57 0
-154 -55 0
-155 -56 0
-156 -57 0
-235 -55 0
-236 -56 0
-237 -57 0
-280 -55 0
-281 -56 0
-282 -57 0
-295 -55 0
-296 -56 0
-297 -57 0
-106 -58 0
-107 -59 0
-108 -60 0
-166 -58 0
-167 -59 0
-168 -60 0
-214 -58 0
-215 -59 0
-216 -60 0
-295 -58 0
-296 -59 0
-297 -60 0
-112 -61 0
-113 -62 0
-114 -63 0
-121 -61 0
-122 -62 0
-123 -63 0
-178 -61 0
-179 -62 0
-180 -63 0
-199 -61 0
-200 -62 0
-201 -63 0
-220 -61 0
-221 -62 0
-222 -63 0
-235 -61 0
-236 -62 0
-237 -63 0
-145 -64 0
-146 -65 0
-147 -66 0
-190 -64 0
-191 -65 0
-192 -66 0
-214 -64 0
-215 -65 0
-216 -66 0
-226 -64 0
-227 -65 0
-228 -66 0
-232 -64 0
-233 -65 0
-234 -66 0
-256 -64 0
-257 -65 0
-258 -66 0
-112 -67 0
-113 -68 0
-114 -69 0
-145 -67 0
-146 -68 0
-147 -69 0
-181 -67 0
-182 -68 0
-183 -69 0
-187 -67 0
-188 -68 0
-189 -69 0
-274 -67 0
-275 -68 0
-276 -69 0
-277 -67 0
-278 -68 0
-279 -69 0
-295 -67 0
-296 -68 0
-297 -69 0
-298 -67 0
-299 -68 0
-300 -69 0
-121 -70 0
-122 -71 0
-123 -72 0
-160 -70 0
-161 -71 0
-162 -72 0
-175 -70 0
-176 -71 0
-177 -72 0
-190 -70 0
-191 -71 0
-192 -72 0
-292 -70 0
-293 -71 0
-294 -72 0
-142 -73 0
-143 -74 0
-144 -75 0
-178 -73 0
-179 -74 0
-180 -75 0
-181 -73 0
-182 -74 0
-183 -75 0
-196 -73 0
-197 -74 0
-198 -75 0
-235 -73 0
-236 -74 0
-237 -75 0
-139 -76 0
-140 -77 0
-141 -78 0
-163 -79 0
-164 -80 0
-165 -81 0
-166 -79 0
-167 -80 0
-168 -81 0
-193 -79 0
-194 -80 0
-195 -81 0
-199 -79 0
-200 -80 0
-201 -81 0
-235 -79 0
-236 -80 0
-237 -81 0
-145 -82 0
-146 -83 0
-147 -84 0
-163 -82 0
-164 -83 0
-165 -84 0
-208 -82 0
-209 -83 0
-210 -84 0
-118 -85 0
-119 -86 0
-120 -87 0
-121 -85 0
-122 -86 0
-123 -87 0
-130 -85 0
-131 -86 0
-132 -87 0
-142 -85 0
-143 -86 0
-144 -87 0
-259 -85 0
-260 -86 0
-261 -87 0
-292 -85 0
-293 -86 0
-294 -87 0
-163 -88 0
-164 -89 0
-165 -90 0
-181 -88 0
-182 -89 0
-183 -90 0
-211 -88 0
-212 -89 0
-213 -90 0
-253 -88 0
-254 -89 0
-255 -90 0
-271 -88 0
-272 -89 0
-273 -90 0
-298 -88 0
-299 -89 0
-300 -90 0
-106 -91 0
-107 -92 0
-108 -93 0
-190 -91 0
-191 -92 0
-192 -93 0
-238 -91 0
-239 -92 0
-240 -93 0
-244 -91 0
-245 -92 0
-246 -93 0
-256 -91 0
-257 -92 0
-258 -93 0
-262 -91 0
-263 -92 0
-264 -93 0
-115 -94 0
-116 -95 0
-117 -96 0
-169 -94 0
-170 -95 0
-171 -96 0
-172 -94 0
-173 -95 0
-174 -96 0
-196 -94 0
-197 -95 0
-198 -96 0
-238 -94 0
-239 -95 0
-240 -96 0
-271 -94 0
-272 -95 0
-273 -96 0
-103 -97 0
-104 -98 0
-105 -99 0
-106 -97 0
-107 -98 0
-108 -99 0
-187 -97 0
-188 -98 0
-189 -99 0
-286 -97 0
-287 -98 0
-288 -99 0
-292 -97 0
-293 -98 0
-294 -99 0
-115 -100 0
-116 -101 0
-117 -102 0
-124 -100 0
-125 -101 0
-126 -102 0
-232 -100 0
-233 -101 0
-234 -102 0
-259 -100 0
-260 -101 0
-261 -102 0
-280 -100 0
-281 -101 0
-282 -102 0
-250 -103 0
-251 -104 0
-252 -105 0
-289 -103 0
-290 -104 0
-291 -105 0
-217 -106 0
-218 -107 0
-219 -108 0
-274 -109 0
-275 -110 0
-276 -111 0
-277 -109 0
-278 -110 0
-279 -111 0
-202 -115 0
-203 -116 0
-204 -117 0
-256 -115 0
-257 -116 0
-258 -117 0
-292 -115 0
-293 -116 0
-294 -117 0
-214 -118 0
-215 -119 0
-216 -120 0
-247 -118 0
-248 -119 0
-249 -120 0
-274 -118 0
-275 -119 0
-276 -120 0
-280 -121 0
-281 -122 0
-282 -123 0
-220 -124 0
-221 -125 0
-222 -126 0
-259 -124 0
-260 -125 0
-261 -126 0
-295 -127 0
-296 -128 0
-297 -129 0
-298 -127 0
-299 -128 0
-300 -129 0
-223 -130 0
-224 -131 0
-225 -132 0
-292 -130 0
-293 -131 0
-294 -132 0
-229 -133 0
-230 -134 0
-231 -135 0
-250 -133 0
-251 -134 0
-252 -135 0
-271 -133 0
-272 -134 0
-273 -135 0
-295 -133 0
-296 -134 0
-297 -135 0
-220 -136 0
-221 -137 0
-222 -138 0
-226 -136 0
-227 -137 0
-228 -138 0
-253 -136 0
-254 -137 0
-255 -138 0
-286 -136 0
-287 -137 0
-288 -138 0
-217 -139 0
-218 -140 0
-219 -141 0
-259 -139 0
-260 -140 0
-261 -141 0
-280 -139 0
-281 -140 0
-282 -141 0
-208 -142 0
-209 -143 0
-210 -144 0
-217 -142 0
-218 -143 0
-219 -144 0
-244 -142 0
-245 -143 0
-246 -144 0
-226 -145 0
-227 -146 0
-228 -147 0
-244 -145 0
-245 -146 0
-246 -147 0
-271 -145 0
-272 -146 0
-273 -147 0
-286 -145 0
-287 -146 0
-288 -147 0
-208 -148 0
-209 -149 0
-210 -150 0
-250 -148 0
-251 -149 0
-252 -150 0
-283 -148 0
-284 -149 0
-285 -150 0
-202 -151 0
-203 -152 0
-204 -153 0
-205 -151 0
-206 -152 0
-207 -153 0
-280 -151 0
-281 -152 0
-282 -153 0
-298 -151 0
-299 -152 0
-300 -153 0
-202 -154 0
-203 -155 0
-204 -156 0
-235 -154 0
-236 -155 0
-237 -156 0
-283 -154 0
-284 -155 0
-285 -156 0
-220 -157 0
-221 -158 0
-222 -159 0
-229 -157 0
-230 -158 0
-231 -159 0
-253 -157 0
-254 -158 0
-255 -159 0
-265 -157 0
-266 -158 0
-267 -159 0
-247 -160 0
-248 -161 0
-249 -162 0
-214 -163 0
-215 -164 0
-216 -165 0
-217 -163 0
-218 -164 0
-219 -165 0
-241 -163 0
-242 -164 0
-243 -165 0
-274 -163 0
-275 -164 0
-276 -165 0
-298 -166 0
-299 -167 0
-300 -168 0
-292 -169 0
-293 -170 0
-294 -171 0
-208 -172 0
-209 -173 0
-210 -174 0
-232 -172 0
-233 -173 0
-234 -174 0
-208 -175 0
-209 -176 0
-210 -177 0
-226 -175 0
-227 -176 0
-228 -177 0
-250 -175 0
-251 -176 0
-252 -177 0
-295 -175 0
-296 -176 0
-297 -177 0
-214 -178 0
-215 -179 0
-216 -180 0
-220 -178 0
-221 -179 0
-222 -180 0
-226 -181 0
-227 -182 0
-228 -183 0
-244 -181 0
-245 -182 0
-246 -183 0
-223 -184 0
-224 -185 0
-225 -186 0
-262 -184 0
-263 -185 0
-264 -186 0
-298 -184 0
-299 -185 0
-300 -186 0
-214 -190 0
-215 -191 0
-216 -192 0
-265 -190 0
-266 -191 0
-267 -192 0
-205 -193 0
-206 -194 0
-207 -195 0
-271 -193 0
-272 -194 0
-273 -195 0
-271 -196 0
-272 -197 0
-273 -198 0
-223 -199 0
-224 -200 0
-225 -201 0
-229 -199 0
-230 -200 0
-231 -201 0
-292 -199 0
-293 -200 0
-294 -201 0
